81

N          4.03800        3.07400        2.90200
C          2.79800        2.73800        3.36000
O          2.36300        1.58900        3.37100
N          1.97900        3.71600        3.83300
C          2.24800        5.04400        3.90900
O          1.42600        5.84600        4.35300
C          3.57600        5.40300        3.42000
N          3.98500        6.71900        3.40300
C          5.21800        7.07600        2.84900
C          5.57800        8.43500        2.78000
C          6.80500        8.82000        2.20600
C          7.16900       10.29300        2.13800
C          7.67400        7.82900        1.69600
C          9.00000        8.20200        1.05500
C          7.31000        6.46800        1.77600
C          6.08100        6.05800        2.35600
N          5.66700        4.69600        2.46100
C          4.38400        4.38100        2.95900
C          6.67700        3.68100        2.11400
C          6.83900        3.51100        0.58400
O          5.56100        3.13200        0.11200
C          7.89100        2.43800        0.17500
O          7.41800        1.19400        0.65800
C          9.30900        2.66900        0.77200
O          9.81000        3.92000        0.34500
C         10.36100        1.61300        0.34800
O         10.53800        1.56100       -1.05800
P         11.67600        2.53400       -1.86200
O         11.56600        2.26800       -3.31300
O         11.54900        3.91500       -1.35400
O         13.16200        1.94000       -1.33800
H          1.07200        3.42000        4.15900
H          4.90200        9.18400        3.16500
H          8.10700       10.47800        2.66200
H          7.28300       10.60900        1.10100
H          6.40000       10.91400        2.59700
H          9.52800        7.32100        0.68800
H          8.84100        8.87000        0.20900
H          9.64600        8.70200        1.77700
H          8.00100        5.75100        1.36600
H          6.44700        2.71800        2.57200
H          7.61800        3.95200        2.59000
H          7.10900        4.46500        0.12800
H          4.97800        3.87200        0.25200
H          7.95400        2.37300       -0.91200
H          7.79600        0.48900        0.14800
H          9.23800        2.71600        1.85800
H          9.22100        4.58700        0.67600
H         10.07700        0.61200        0.67400
H         11.32600        1.80200        0.82000
H          3.35600        7.43500        3.73400
H         13.63900        2.68700       -1.01500
C          5.01100        2.82500        7.59500
O          4.03300        2.33400        7.02900
C          6.05700        1.89700        8.23300
C          6.37200        4.76000        8.32700
N          5.20300        4.16400        7.67400
C          4.24700        5.12100        7.09500
Cl         6.73500        0.73500        7.05700
C          4.74900        6.55900        7.03700
C          4.07600        7.62700        6.56500
C          4.56500        9.01700        6.50900
C          5.42100        9.47300        7.53600
C          5.91600       10.79100        7.52900
C          5.56000       11.67100        6.49100
C          4.70900       11.22900        5.46100
C          4.21400        9.91100        5.46900
H          5.61500        1.31700        9.04300
H          6.88700        2.47900        8.63200
H          7.30000        4.34800        7.93000
H          6.41900        5.83900        8.17400
H          6.34400        4.58300        9.40300
H          3.96000        4.81900        6.08600
H          3.31800        5.10800        7.66700
H          5.74900        6.68400        7.42200
H          3.07600        7.48200        6.18400
H          5.70500        8.80900        8.34000
H          6.57000       11.12600        8.32100
H          5.94000       12.68200        6.48400
H          4.43500       11.90300        4.66300
H          3.56400        9.60400        4.66500
