81

N          3.37500        3.25700        3.15500
C          2.12600        3.07600        3.67200
O          1.55400        1.98900        3.70800
N          1.45700        4.14600        4.18000
C          1.89200        5.43000        4.23800
O          1.19700        6.32700        4.71800
C          3.22800        5.62400        3.68500
N          3.79600        6.88000        3.64300
C          5.03500        7.08300        3.03000
C          5.55700        8.38700        2.93900
C          6.79300        8.62000        2.30600
C          7.33200       10.03600        2.21500
C          7.50800        7.53000        1.75900
C          8.83700        7.73800        1.05500
C          6.98300        6.22400        1.86100
C          5.74200        5.96800        2.50000
N          5.16800        4.66700        2.63100
C          3.88200        4.51100        3.19000
C          6.02800        3.53500        2.24000
C          6.14300        3.38700        0.70300
O          4.91500        2.82300        0.28800
C          7.32200        2.48000        0.24200
O          7.05800        1.18000        0.73800
C          8.71600        2.91600        0.77900
O          9.04800        4.19100        0.26600
C          9.87800        1.97200        0.38100
O         10.12700        1.97900       -1.01500
P         11.42500        2.83600       -1.69800
O         11.52500        2.46100       -3.12500
O         11.29500        4.25800       -1.31700
O         12.77900        2.22500       -0.90500
H          0.53800        3.96300        4.55000
H          4.99700        9.21300        3.35300
H          8.30900       10.10300        2.69400
H          7.43400       10.33800        1.17300
H          6.66800       10.74600        2.70800
H          9.23500        6.80000        0.66600
H          8.72200        8.42200        0.21400
H          9.57300        8.15300        1.74400
H          7.56000        5.42800        1.42100
H          5.67800        2.60000        2.67800
H          7.00400        3.66500        2.70500
H          6.24800        4.36900        0.24000
H          4.32600        3.54400        0.08700
H          7.34600        2.42500       -0.84700
H          7.11000        0.55100        0.02900
H          8.66700        3.01900        1.86300
H          8.39700        4.80200        0.58700
H          9.67100        0.94000        0.66600
H         10.79800        2.23200        0.90500
H          3.27600        7.66700        4.00100
H         13.32500        2.97000       -0.71400
C          3.83500        9.56200        6.16600
O          2.80000        9.58200        5.49800
C          4.92700       10.60800        5.89600
C          5.17100        8.72900        8.07900
N          4.04700        8.64500        7.14100
C          3.15000        7.49500        7.33400
Cl         5.08300       11.78100        7.23500
C          3.81100        6.13700        7.13300
C          3.92400        5.15300        8.04800
C          4.56500        3.84100        7.85000
C          4.88100        3.43600        6.53400
C          5.49500        2.19200        6.29100
C          5.80100        1.33600        7.36500
C          5.49300        1.72800        8.68100
C          4.87900        2.97200        8.92300
H          4.70300       11.17600        4.99300
H          5.89600       10.12300        5.77300
H          5.20200        9.70200        8.57100
H          5.09900        7.98200        8.87000
H          6.11700        8.56900        7.56100
H          2.70600        7.51300        8.33100
H          2.30400        7.56600        6.64900
H          4.21500        5.99400        6.14300
H          3.51200        5.31400        9.03300
H          4.65300        4.08100        5.69900
H          5.73100        1.89500        5.28000
H          6.27200        0.38200        7.18000
H          5.72700        1.07300        9.50700
H          4.65600        3.24200        9.94400
