81

N          4.04400        3.06300        2.93900
C          2.81400        2.74500        3.43700
O          2.36000        1.60300        3.45500
N          2.03000        3.73200        3.94800
C          2.32500        5.05400        4.02500
O          1.53400        5.86600        4.50500
C          3.64100        5.39400        3.49200
N          4.07300        6.70400        3.47100
C          5.29100        7.04400        2.87600
C          5.67200        8.39700        2.80500
C          6.88500        8.76600        2.19100
C          7.27200       10.23200        2.12300
C          7.71700        7.76400        1.64300
C          9.02600        8.12000        0.95800
C          7.33300        6.40900        1.72400
C          6.11800        6.01600        2.34400
N          5.68400        4.66000        2.45300
C          4.41400        4.36300        2.99400
C          6.66300        3.63000        2.06200
C          6.81400        3.51600        0.52500
O          5.53900        3.12500        0.05200
C          7.88400        2.48000        0.07100
O          7.41800        1.20400        0.47200
C          9.29000        2.69000        0.70500
O          9.82200        3.93200        0.28800
C         10.33500        1.61600        0.31200
O         10.54400        1.55200       -1.08900
P         11.67200        2.54500       -1.88100
O         11.58300        2.27700       -3.33300
O         11.51300        3.92400       -1.37500
O         13.16300        1.98000       -1.34000
H          1.13100        3.44800        4.30400
H          5.02400        9.15400        3.22100
H          8.23100       10.39700        2.61500
H          7.35400       10.55600        1.08500
H          6.53000       10.86300        2.61400
H          9.52500        7.23400        0.56500
H          8.84900        8.79800        0.12300
H          9.70600        8.60200        1.66100
H          7.99600        5.68400        1.28400
H          6.40700        2.65800        2.48400
H          7.61300        3.85600        2.54300
H          7.05800        4.49000        0.10000
H          4.94600        3.85400        0.20400
H          7.96600        2.48100       -1.01700
H          7.85400        0.53100       -0.03600
H          9.19100        2.74200        1.78900
H         10.39200        4.24200        0.98000
H         10.02900        0.62100        0.63800
H         11.29100        1.79400        0.80500
H          3.46800        7.42700        3.83000
H         12.98700        1.50900       -0.54200
C          4.60400        3.74100        7.02300
O          3.53500        3.24900        6.66200
C          5.86900        2.86800        7.04000
C          3.56000        5.94200        7.46900
N          4.71000        5.03600        7.40700
C          5.99900        5.62600        7.80100
Cl         6.05900        1.92800        5.53200
C          6.10200        7.13000        7.57500
C          5.19300        7.91500        6.96300
C          5.29600        9.36900        6.74500
C          6.09700       10.12900        7.62600
C          6.23000       11.52100        7.46100
C          5.56000       12.17200        6.40900
C          4.76000       11.42700        5.52300
C          4.62800       10.03500        5.68900
H          5.83500        2.15500        7.86400
H          6.75800        3.48900        7.15100
H          2.75400        5.51800        8.06900
H          3.81700        6.89900        7.92600
H          3.17700        6.14900        6.46900
H          6.21100        5.42500        8.85300
H          6.81000        5.14400        7.25400
H          7.01100        7.56400        7.96000
H          4.28900        7.46200        6.58500
H          6.61900        9.64400        8.43900
H          6.84600       12.08900        8.14200
H          5.66100       13.24000        6.28000
H          4.24500       11.92400        4.71400
H          4.00700        9.49400        4.99200
