81

N          3.84400        3.17500        3.97200
C          2.60000        2.96000        4.49000
O          2.16400        1.84700        4.77700
N          1.77900        4.02200        4.70700
C          2.05000        5.32900        4.46000
O          1.22600        6.21500        4.69200
C          3.38100        5.56000        3.90700
N          3.79200        6.83300        3.57400
C          5.02800        7.04500        2.95900
C          5.39100        8.34700        2.56400
C          6.62200        8.58200        1.92200
C          6.98800        9.99400        1.50200
C          7.49300        7.49700        1.67300
C          8.82300        7.70500        0.97000
C          7.12700        6.19600        2.07800
C          5.89400        5.93900        2.73200
N          5.47700        4.64300        3.16200
C          4.19100        4.45700        3.71300
C          6.48800        3.57400        3.07800
C          6.87400        3.24300        1.61500
O          6.17400        2.05500        1.30300
C          8.40100        3.02600        1.39900
O          8.80000        3.91100        0.36800
C          8.78900        1.58400        0.95900
O          8.52000        0.67600        2.00900
C         10.28600        1.40500        0.60300
O         10.48100        1.04500       -0.75400
P         11.55400        1.88600       -1.76800
O         12.88400        1.89800       -1.12200
O         11.40600        1.35900       -3.14000
O         10.96400        3.46300       -1.76800
H          0.87100        3.81400        5.08900
H          4.71400        9.16700        2.75200
H          7.92300       10.30200        1.97200
H          7.10900       10.05000        0.42000
H          6.21700       10.70800        1.79100
H          9.35300        6.76100        0.83000
H          8.67000        8.14800       -0.01400
H          9.46500        8.36500        1.55300
H          7.82000        5.40100        1.85800
H          6.15500        2.66900        3.58800
H          7.35600        3.87100        3.66400
H          6.52900        4.03500        0.94900
H          5.39500        2.03400        1.85000
H          8.94800        3.29600        2.30300
H          9.34000        4.60200        0.73200
H          8.16200        1.28400        0.11900
H          9.06200        0.92700        2.74600
H         10.75300        0.63000        1.21300
H         10.85400        2.31200        0.81400
H          3.16100        7.60700        3.71800
H         10.45900        3.54900       -2.56000
C          4.28400        6.16700        7.23400
O          3.31500        5.48900        7.57800
C          4.16000        7.69900        7.20200
C          6.62700        6.40400        6.46600
N          5.46800        5.60900        6.88400
C          5.67800        4.15300        6.90800
Cl         2.95700        8.25300        6.00400
C          6.42400        3.64200        8.13400
C          7.50700        2.83900        8.14000
C          8.22500        2.34500        9.32900
C          9.36700        1.53400        9.13900
C         10.08900        1.03700       10.24100
C          9.67600        1.34600       11.55000
C          8.54100        2.15200       11.75300
C          7.82000        2.64900       10.65000
H          5.11300        8.15800        6.94000
H          3.84700        8.07500        8.17600
H          6.86500        7.17300        7.20100
H          7.52300        5.79100        6.35300
H          6.43700        6.88600        5.50600
H          4.72500        3.62400        6.84400
H          6.23100        3.84400        6.02000
H          6.00700        3.98300        9.06800
H          7.91100        2.50800        7.19500
H          9.69700        1.28900        8.14000
H         10.96000        0.41900       10.08100
H         10.22900        0.96500       12.39600
H          8.22300        2.39100       12.75700
H          6.95500        3.26500       10.84100
