81

N          3.33700        3.25000        3.12400
C          2.09300        3.07200        3.65500
O          1.51800        1.98700        3.69400
N          1.43500        4.14300        4.17500
C          1.87500        5.42500        4.23200
O          1.19000        6.32300        4.72400
C          3.20600        5.61500        3.66400
N          3.77800        6.86900        3.62000
C          5.01100        7.07000        2.99300
C          5.53700        8.37200        2.90000
C          6.76700        8.60200        2.25400
C          7.31000       10.01600        2.16200
C          7.47000        7.51100        1.69500
C          8.79200        7.71600        0.97500
C          6.94200        6.20700        1.79800
C          5.70700        5.95300        2.45100
N          5.13000        4.65500        2.58400
C          3.84900        4.50200        3.15800
C          5.98000        3.52100        2.17800
C          6.07000        3.37300        0.64000
O          4.83900        2.79900        0.24600
C          7.24700        2.47400        0.15900
O          7.00900        1.17600        0.67100
C          8.64900        2.93000        0.66000
O          8.99900        4.15600        0.04800
C          9.79600        1.94000        0.33700
O         10.11600        1.91400       -1.04400
P         11.35600        2.87100       -1.70300
O         11.49400        2.52400       -3.13400
O         11.12200        4.27400       -1.30300
O         12.74300        2.34500       -0.90600
H          0.51900        3.96200        4.55500
H          4.98600        9.19900        3.32400
H          8.29400       10.07800        2.62900
H          7.40100       10.32200        1.11900
H          6.65500       10.72700        2.66500
H          9.18100        6.77800        0.57800
H          8.67000        8.40400        0.13900
H          9.53800        8.12600        1.65600
H          7.51000        5.41000        1.34900
H          5.63500        2.58600        2.62200
H          6.96400        3.64800        2.62800
H          6.16000        4.35600        0.17500
H          4.24200        3.51600        0.05500
H          7.24700        2.41000       -0.93000
H          7.10300        0.53600       -0.02300
H          8.60300        3.11900        1.73200
H          8.35600        4.79900        0.31500
H          9.53800        0.92000        0.62700
H         10.69600        2.17700        0.90500
H          3.26600        7.65700        3.98700
H         13.17900        1.76000       -1.50400
C          3.89800        9.60400        6.35200
O          3.01600        9.54800        5.49400
C          4.85900       10.80300        6.36800
C          5.12900        8.66900        8.28700
N          4.05300        8.64100        7.29200
C          3.13800        7.49300        7.38600
Cl         5.49600       11.18000        4.74200
C          3.79900        6.13700        7.17200
C          3.90600        5.14200        8.07500
C          4.54900        3.83200        7.86500
C          4.87700        3.44500        6.54700
C          5.49200        2.20400        6.29200
C          5.78700        1.33300        7.35600
C          5.46600        1.70600        8.67500
C          4.85100        2.94800        8.92800
H          5.71500       10.60300        7.01300
H          4.34800       11.69400        6.73300
H          5.14500        9.61700        8.82500
H          5.01200        7.88600        9.03800
H          6.09900        8.52300        7.81000
H          2.63500        7.47700        8.35500
H          2.33500        7.59900        6.65500
H          4.20900        6.00700        6.18300
H          3.48900        5.29100        9.06000
H          4.65800        4.10300        5.71900
H          5.73800        1.92200        5.27900
H          6.25900        0.38100        7.16300
H          5.69200        1.04000        9.49400
H          4.61900        3.20300        9.95100
