81

N          3.47200        3.85000        3.36300
C          2.20100        3.65900        3.82200
O          1.63800        2.56700        3.83500
N          1.50000        4.72400        4.29400
C          1.92000        6.01200        4.36900
O          1.19500        6.90400        4.81300
C          3.27900        6.21700        3.87900
N          3.83700        7.47800        3.86000
C          5.10100        7.69100        3.30500
C          5.61500        8.99900        3.23400
C          6.87800        9.24100        2.65900
C          7.40800       10.66200        2.58900
C          7.62700        8.15600        2.15000
C          8.98600        8.37500        1.50800
C          7.11000        6.84600        2.23100
C          5.84300        6.58000        2.81200
N          5.27500        5.27500        2.92000
C          3.96500        5.10900        3.41900
C          6.16200        4.15000        2.57300
C          6.16200        3.84700        1.05500
O          5.58100        2.56400        0.92900
C          7.58000        3.84700        0.41100
O          7.47100        4.53000       -0.82500
C          8.15300        2.43000        0.11800
O          7.82100        1.55300        1.17600
C          9.69600        2.38000       -0.01900
O         10.11800        2.37500       -1.37300
P         11.49100        3.22900       -1.89500
O         11.57800        3.10700       -3.36600
O         11.47400        4.56500       -1.26500
O         12.78000        2.37500       -1.22700
H          0.56600        4.53400        4.62200
H          5.03000        9.82100        3.61900
H          8.36100       10.74000        3.11300
H          7.55600       10.96200        1.55200
H          6.71500       11.36800        3.04800
H          9.41000        7.43900        1.14100
H          8.90400        9.05600        0.66100
H          9.68600        8.79800        2.22900
H          7.71400        6.05400        1.82100
H          5.90100        3.25000        3.13200
H          7.16300        4.37400        2.93800
H          5.53300        4.56600        0.53000
H          6.17200        1.94400        1.34500
H          8.27500        4.40400        1.04100
H          6.79800        4.12200       -1.35700
H          7.68000        2.03000       -0.77800
H          7.91000        0.66700        0.84800
H         10.11100        1.48800        0.45200
H         10.16600        3.21800        0.49500
H          3.29300        8.26100        4.19100
H         12.40800        1.58700       -0.86400
C          3.17800       15.39700        6.14200
O          2.60100       14.56600        6.84400
C          3.58600       16.74700        6.75400
C          4.13900       16.15300        3.98800
N          3.47300       15.16400        4.84100
C          3.15100       13.88500        4.18900
Cl         5.05500       17.41700        5.99000
C          3.74300       12.65900        4.87400
C          3.06300       11.69100        5.52000
C          3.63900       10.50700        6.18300
C          2.77900        9.44200        6.52800
C          3.27900        8.28800        7.16200
C          4.65100        8.18700        7.45900
C          5.51900        9.24200        7.12100
C          5.01700       10.39500        6.48600
H          3.79500       16.64100        7.81800
H          2.78900       17.47900        6.62500
H          5.06300       16.51100        4.44500
H          4.41100       15.73800        3.01700
H          3.48600       17.00800        3.80800
H          2.07000       13.74700        4.12000
H          3.49800       13.89800        3.15500
H          4.81800       12.60400        4.80800
H          1.98700       11.76400        5.57400
H          1.72400        9.50300        6.30500
H          2.61000        7.48000        7.41900
H          5.03600        7.30300        7.94500
H          6.57200        9.16600        7.34700
H          5.71000       11.18400        6.24000
