81

N          3.42800        3.31100        3.38200
C          2.12200        3.11100        3.72200
O          1.58400        2.00600        3.73800
N          1.35500        4.18000        4.06500
C          1.73800        5.48100        4.11100
O          0.95400        6.37500        4.43200
C          3.13500        5.69500        3.74700
N          3.66500        6.96800        3.71600
C          4.97500        7.18500        3.27800
C          5.46500        8.50100        3.18800
C          6.77400        8.74600        2.72800
C          7.27900       10.17400        2.63500
C          7.59300        7.65600        2.35500
C          9.00500        7.87700        1.84000
C          7.09800        6.33900        2.45500
C          5.78500        6.07000        2.92200
N          5.23700        4.75700        3.04300
C          3.88700        4.58300        3.41800
C          6.17700        3.64000        2.84700
C          6.33300        3.25700        1.35500
O          5.05300        2.81700        0.94600
C          7.38200        2.13600        1.09700
O          7.98300        1.83900        2.34400
C          8.51800        2.53300        0.10900
O          7.98300        2.70700       -1.18900
C          9.64700        1.48100       -0.02400
O         10.31200        1.55600       -1.27400
P         11.64800        2.57600       -1.52700
O         12.85400        1.89000       -1.01700
O         11.60800        3.05500       -2.92400
O         11.34400        3.90000       -0.53300
H          0.39700        3.98200        4.30800
H          4.82700        9.32600        3.46700
H          8.17200       10.30400        3.24500
H          7.52300       10.42500        1.60200
H          6.52800       10.88500        2.98300
H          9.48300        6.93500        1.56700
H          8.99400        8.51100        0.95300
H          9.61900        8.35500        2.60300
H          7.75700        5.54300        2.15100
H          5.88200        2.76500        3.42600
H          7.13300        3.90900        3.29400
H          6.60100        4.13700        0.76900
H          4.43000        3.49400        1.19000
H          6.88300        1.23300        0.74200
H          8.90200        1.64100        2.21700
H          8.93100        3.49600        0.40600
H          7.16500        3.17900       -1.09600
H          9.26200        0.46600        0.07600
H         10.38200        1.58500        0.77500
H          3.07500        7.75300        3.94800
H         12.18500        4.28700       -0.35300
C          4.56100        3.76800        7.28900
O          3.58400        3.33800        6.67300
C          5.67000        2.79400        7.71700
C          3.65100        6.07100        7.34100
N          4.69800        5.07900        7.60200
C          5.91700        5.60100        8.24000
Cl         5.94800        1.51200        6.50400
C          6.28700        7.02100        7.82800
C          5.55300        7.85500        7.06500
C          5.91600        9.22700        6.66700
C          4.89800       10.08300        6.19300
C          5.19100       11.40400        5.80000
C          6.51100       11.88400        5.87800
C          7.53500       11.04200        6.35000
C          7.24000        9.72100        6.74200
H          5.41000        2.30200        8.65400
H          6.61200        3.32600        7.85000
H          2.69700        5.76000        7.76800
H          3.88800        7.04000        7.78100
H          3.52100        6.22100        6.26900
H          5.82500        5.57500        9.32800
H          6.76100        4.95000        8.01400
H          7.24300        7.34600        8.20900
H          4.59900        7.51100        6.69400
H          3.87900        9.73000        6.12800
H          4.40200       12.04800        5.44000
H          6.73800       12.89700        5.57800
H          8.54900       11.40800        6.41100
H          8.04800        9.10200        7.09900
