81

N          3.49500        2.50300        1.52100
C          2.14500        2.30900        1.56700
O          1.60200        1.23600        1.31200
N          1.33700        3.34700        1.91300
C          1.71900        4.61000        2.22800
O          0.89600        5.47900        2.52300
C          3.16200        4.81800        2.17900
N          3.70200        6.05900        2.44400
C          5.07500        6.28400        2.30600
C          5.58800        7.57900        2.51200
C          6.96400        7.83400        2.35800
C          7.49300        9.24000        2.58100
C          7.82900        6.77800        1.99000
C          9.31700        7.01400        1.79800
C          7.30900        5.48200        1.79200
C          5.92600        5.20200        1.94900
N          5.35100        3.90900        1.76200
C          3.95100        3.73700        1.83700
C          6.29900        2.79400        1.58500
C          6.76000        2.64100        0.11500
O          5.63900        2.12700       -0.57700
C          7.97600        1.68600       -0.07000
O          8.74300        1.76200        1.11800
C          8.90900        2.05800       -1.25900
O          8.19700        1.95100       -2.47600
C         10.15400        1.14700       -1.40300
O         10.81200        1.32200       -2.64600
P         12.12300        2.38700       -2.83400
O         12.45800        2.45700       -4.27200
O         11.82600        3.62600       -2.08500
O         13.39200        1.61300       -2.04200
H          0.34800        3.15500        1.93200
H          4.91700        8.37900        2.78500
H          8.25000        9.24200        3.36500
H          7.94000        9.62800        1.66500
H          6.69700        9.92100        2.88100
H          9.82900        6.10300        1.48400
H          9.48900        7.77100        1.03200
H          9.77400        7.35000        2.72800
H          8.00600        4.71300        1.50400
H          5.87900        1.85400        1.94300
H          7.14300        2.94800        2.25600
H          7.00700        3.61800       -0.30300
H          4.91800        2.73400       -0.43900
H          7.62900        0.65800       -0.18000
H          8.21900        1.47200        1.85500
H          9.21200        3.10000       -1.16600
H          7.70200        1.14200       -2.44400
H          9.89000        0.09200       -1.32400
H         10.86800        1.32100       -0.59700
H          3.08700        6.82500        2.67300
H         13.64800        0.89900       -2.60200
C          1.06800        7.13100       11.77100
O          0.76600        6.04100       11.28100
C          0.46300        7.54300       13.12200
C          2.30900        9.27400       11.74200
N          1.92300        7.98500       11.16000
C          2.53600        7.67200        9.85900
Cl        -0.61200        8.96300       12.97500
C          1.70800        8.09400        8.65200
C          1.32700        7.30900        7.62300
C          0.52700        7.72100        6.45600
C          0.18900        6.74500        5.49200
C         -0.57400        7.08600        4.35800
C         -1.00800        8.41200        4.17500
C         -0.67800        9.39400        5.12800
C          0.08500        9.05100        6.26200
H          1.24800        7.80300       13.83300
H         -0.12900        6.72800       13.53800
H          2.68500        9.15100       12.75900
H          3.10300        9.75800       11.17200
H          1.45900        9.95700       11.76500
H          3.52100        8.13500        9.77500
H          2.72200        6.60000        9.78700
H          1.42100        9.13400        8.66500
H          1.62400        6.27100        7.62800
H          0.51400        5.72300        5.61800
H         -0.82600        6.33000        3.63000
H         -1.59400        8.67500        3.30700
H         -1.01100       10.41200        4.99000
H          0.31900        9.82800        6.97300
