81

N          3.48000        3.74500        2.65300
C          2.21200        3.56700        3.12300
O          1.58100        2.51900        3.00300
N          1.59100        4.59500        3.76200
C          2.09400        5.83300        4.00100
O          1.43800        6.69500        4.58900
C          3.45100        6.02300        3.49800
N          4.08700        7.23900        3.63700
C          5.34800        7.45200        3.07400
C          5.94200        8.72500        3.16900
C          7.20300        8.97000        2.59100
C          7.82000       10.35200        2.70200
C          7.86900        7.92500        1.91100
C          9.22300        8.15000        1.26100
C          7.27200        6.64900        1.82700
C          6.00500        6.38000        2.40800
N          5.35800        5.10800        2.35200
C          4.05300        4.95200        2.86600
C          6.16300        3.99300        1.82300
C          6.36600        4.08800        0.29100
O          5.08900        3.86100       -0.27100
C          7.38300        3.05500       -0.27800
O          6.85700        1.76900       -0.00600
C          8.80000        3.13000        0.36100
O          9.39200        4.37900        0.06500
C          9.78800        2.05000       -0.14600
O         10.16600        2.25400       -1.49700
P         11.61500        3.03100       -1.92400
O         12.72900        2.33300       -1.24800
O         11.63500        3.20400       -3.39100
O         11.47200        4.56300       -1.23900
H          0.65600        4.41700        4.09100
H          5.42000        9.51800        3.68300
H          8.78900       10.29900        3.19900
H          7.96100       10.78600        1.71200
H          7.18500       11.02600        3.27700
H          9.57700        7.25200        0.75300
H          9.16300        8.94700        0.52000
H          9.96500        8.42500        2.01000
H          7.81400        5.88800        1.29100
H          5.72400        3.02800        2.08000
H          7.11400        3.97000        2.35300
H          6.69100        5.09300        0.01900
H          4.53600        4.59500       -0.02200
H          7.46000        3.16400       -1.36000
H          7.45000        1.10500       -0.33600
H          8.70900        3.07900        1.44600
H          8.82500        5.05200        0.42000
H          9.35700        1.05000       -0.07900
H         10.68700        2.01300        0.47100
H          3.60300        7.99900        4.09100
H         11.42900        5.16700       -1.96200
C          2.78400       13.63600        4.90800
O          1.57700       13.51300        5.11800
C          3.27700       14.75300        3.97500
C          4.70600       13.29600        6.43400
N          3.70300       12.81900        5.47700
C          3.75300       11.37900        5.17600
Cl         4.53100       15.76900        4.74200
C          2.75100       10.53500        5.95500
C          3.00500        9.38500        6.60900
C          2.03200        8.57000        7.36000
C          2.50200        7.76600        8.42100
C          1.61500        6.96900        9.17000
C          0.24100        6.96900        8.86500
C         -0.24100        7.76600        7.81100
C          0.64900        8.56200        7.06200
H          2.45500       15.41100        3.69300
H          3.71100       14.32800        3.07000
H          4.23900       13.83900        7.25700
H          5.26700       12.47400        6.88100
H          5.42300       13.95400        5.94400
H          3.59400       11.20000        4.11100
H          4.75300       10.99300        5.37900
H          1.75100       10.94000        5.95300
H          4.01200        8.99600        6.60100
H          3.55400        7.75500        8.66900
H          1.98800        6.35900        9.97900
H         -0.44100        6.35900        9.43900
H         -1.29500        7.76800        7.57500
H          0.24600        9.16200        6.26100
