81

N          3.69100        3.29200        3.34300
C          2.38600        3.08400        3.68300
O          1.85800        1.97400        3.71000
N          1.60800        4.14900        4.01200
C          1.98000        5.45400        4.04500
O          1.18700        6.34400        4.35600
C          3.37600        5.67700        3.68200
N          3.89400        6.95500        3.63800
C          5.20300        7.17900        3.20100
C          5.68100        8.49800        3.09800
C          6.98900        8.75000        2.63800
C          7.48000       10.18200        2.53100
C          7.81900        7.66400        2.27900
C          9.23000        7.89200        1.76400
C          7.33500        6.34300        2.39200
C          6.02300        6.06800        2.85900
N          5.48700        4.75100        2.99300
C          4.13800        4.56900        3.36700
C          6.43800        3.64000        2.81100
C          6.76100        3.38000        1.31900
O          5.67200        2.62400        0.82700
C          8.09000        2.60300        1.08600
O          9.13400        3.40900        1.60000
C          8.41000        2.31100       -0.40900
O          7.35100        1.57400       -0.98900
C          9.69600        1.47700       -0.63700
O         10.29800        1.74400       -1.89200
P         11.86900        2.37900       -2.02400
O         12.76800        1.56500       -1.17800
O         12.17500        2.56800       -3.45700
O         11.74900        3.90900       -1.33000
H          0.65200        3.94600        4.25500
H          5.03500        9.32000        3.36700
H          8.37200       10.32700        3.14200
H          7.72500       10.42400        1.49600
H          6.72300       10.88900        2.87000
H          9.71700        6.95100        1.50300
H          9.21500        8.51600        0.87100
H          9.83800        8.38400        2.52300
H          8.00200        5.55000        2.09800
H          6.07400        2.72500        3.27800
H          7.33800        3.85800        3.38400
H          6.80100        4.32500        0.77500
H          4.90400        3.18700        0.84800
H          8.07900        1.66900        1.65000
H          8.98500        3.57500        2.52200
H          8.46900        3.25300       -0.95400
H          7.42300        0.68200       -0.67500
H          9.49000        0.40700       -0.59800
H         10.42700        1.65400        0.15200
H          3.29700        7.73600        3.86100
H         11.82900        4.52200       -2.04200
C          4.41000        3.91000        7.16300
O          3.37800        3.57000        6.58400
C          5.53100        2.87900        7.37200
C          5.78400        5.56500        8.39100
N          4.60000        5.17000        7.62300
C          3.62300        6.24300        7.37400
Cl         5.59500        1.67600        6.05300
C          4.24100        7.58500        6.99800
C          5.54400        7.92100        7.07600
C          6.13700        9.22100        6.71300
C          7.51200        9.42800        6.96300
C          8.12700       10.65100        6.63500
C          7.37200       11.68500        6.05200
C          6.00200       11.49200        5.79800
C          5.38700       10.26700        6.12600
H          5.38300        2.33200        8.30300
H          6.50100        3.37500        7.40800
H          6.70200        5.29800        7.86700
H          5.82200        6.64300        8.55800
H          5.78700        5.08200        9.36900
H          2.92700        5.95600        6.58400
H          3.00100        6.39000        8.25700
H          3.52300        8.30600        6.64100
H          6.24700        7.18400        7.43600
H          8.10600        8.64400        7.40900
H          9.18000       10.79600        6.83100
H          7.84300       12.62400        5.79900
H          5.42000       12.28300        5.34900
H          4.33500       10.15200        5.91700
