81

N          3.76100        2.79000        3.18300
C          2.52300        2.52800        3.69300
O          2.07200        1.39500        3.83900
N          1.72700        3.56600        4.06500
C          2.01800        4.89000        3.98800
O          1.21500        5.75000        4.35100
C          3.34200        5.16900        3.44200
N          3.77200        6.46900        3.27200
C          5.00000        6.74000        2.66400
C          5.38000        8.07600        2.43700
C          6.60300        8.37400        1.80600
C          6.98900        9.82300        1.56900
C          7.44900        7.31800        1.39900
C          8.76900        7.59500        0.70100
C          7.06600        5.98100        1.63600
C          5.84000        5.65900        2.27600
N          5.40700        4.32500        2.53900
C          4.12800        4.08900        3.08800
C          6.39600        3.26000        2.29400
C          6.70800        3.08200        0.78800
O          5.59500        2.39200        0.25400
C          8.01100        2.27900        0.50300
O          8.72900        2.21400        1.72100
C          8.94500        2.92700       -0.56100
O          8.91000        2.16700       -1.75300
C         10.43400        3.00800       -0.14000
O         11.24500        3.61000       -1.13500
P         12.11600        2.69200       -2.26900
O         12.68800        3.61800       -3.26900
O         12.99900        1.76200       -1.53400
O         10.93700        1.76500       -3.03500
H          0.82200        3.32400        4.43500
H          4.72200        8.87500        2.74600
H          7.93700       10.05100        2.05600
H          7.09000       10.02000        0.50100
H          6.23600       10.50500        1.96600
H          9.27800        6.66900        0.42700
H          8.60700        8.16600       -0.21200
H          9.43400        8.16100        1.35300
H          7.73900        5.21100        1.29900
H          6.07200        2.31000        2.72100
H          7.29500        3.48400        2.86600
H          6.77700        4.05700        0.30300
H          4.82400        2.92600        0.42200
H          7.76300        1.25900        0.20500
H          8.96000        3.09000        2.00300
H          8.56900        3.91800       -0.81300
H          9.44600        2.61900       -2.39200
H         10.84800        2.01800        0.05800
H         10.55200        3.55700        0.79400
H          3.15800        7.22700        3.53000
H         10.99300        0.90600       -2.65000
C          2.87200       15.00900        6.39700
O          1.88000       14.57800        6.98400
C          3.72100       16.10800        7.05600
C          4.25000       15.22200        4.34900
N          3.25000       14.54600        5.18000
C          2.68200       13.31600        4.60800
Cl         2.71500       17.35400        7.84700
C          3.41000       12.03800        5.00700
C          2.85400       10.92100        5.51700
C          3.56200        9.68700        5.90400
C          2.80000        8.58100        6.34100
C          3.42700        7.37900        6.72200
C          4.82900        7.26900        6.66900
C          5.60000        8.36300        6.23600
C          4.97100        9.56500        5.85500
H          4.34100       16.61300        6.31600
H          4.36900       15.67900        7.82100
H          5.17400       15.39400        4.90400
H          4.51800       14.63300        3.47200
H          3.87300       16.18300        3.99600
H          1.63200       13.20900        4.88400
H          2.68100       13.38000        3.51900
H          4.47600       12.07900        4.84800
H          1.78500       10.89800        5.66800
H          1.72200        8.64800        6.38600
H          2.83200        6.54100        7.05300
H          5.31200        6.34800        6.96100
H          6.67600        8.28200        6.19400
H          5.59200       10.38400        5.52700
