81

N          3.67600        4.25700        1.96700
C          2.46900        3.95100        2.52700
O          1.74300        3.04300        2.12900
N          2.02600        4.68200        3.58500
C          2.65600        5.72500        4.18100
O          2.15700        6.32200        5.13700
C          3.94700        6.05200        3.58200
N          4.69400        7.10900        4.05800
C          5.88400        7.48200        3.42700
C          6.58900        8.60900        3.89000
C          7.77900        9.01700        3.25600
C          8.51800       10.23900        3.77100
C          8.26100        8.28400        2.14800
C          9.53200        8.69900        1.42700
C          7.55400        7.15100        1.69500
C          6.35600        6.71900        2.32200
N          5.60500        5.58000        1.90300
C          4.37000        5.27900        2.51800
C          6.23800        4.72200        0.88600
C          7.17200        3.65800        1.51200
O          8.41500        4.30800        1.68900
C          7.36200        2.38800        0.63200
O          6.54500        1.37500        1.18800
C          8.82100        1.84800        0.59000
O          9.32900        1.74100        1.90600
C          9.81400        2.74900       -0.18600
O         11.07300        2.12600       -0.37900
P         11.81700        2.04200       -1.90400
O         11.52500        3.29700       -2.62900
O         13.21700        1.60900       -1.71500
O         11.00500        0.79100       -2.68500
H          1.13000        4.41900        3.96400
H          6.20600        9.16600        4.73200
H          9.53600        9.97600        4.05900
H          8.56300       11.00900        3.00000
H          8.02200       10.66600        4.64200
H          9.74000        8.04700        0.57800
H          9.44200        9.71700        1.04800
H         10.38600        8.65300        2.10200
H          7.95600        6.63100        0.84100
H          6.78700        5.31400        0.15300
H          5.45500        4.26400        0.28400
H          6.79400        3.35900        2.49100
H          8.78700        4.44600        0.82300
H          7.01100        2.58200       -0.38300
H          6.59800        0.59200        0.65400
H          8.82000        0.84100        0.17400
H         10.08000        1.16400        1.87300
H          9.99600        3.68900        0.33700
H          9.41100        3.03900       -1.15700
H          4.33800        7.65600        4.82700
H         11.02900        1.00100       -3.60400
C         13.16100       11.70000        3.94700
O         13.76400       12.06100        2.93500
C         12.70500       12.75300        4.96900
C         13.19000        9.32400        3.24500
N         12.87900       10.39800        4.19300
C         12.24100        9.96600        5.44700
Cl        13.86800       14.10100        5.11300
C         11.32900        8.75300        5.30700
C         10.22200        8.49100        6.03100
C          9.34300        7.31600        5.89400
C          8.21700        7.21300        6.74100
C          7.34500        6.11100        6.65000
C          7.59000        5.09500        5.70800
C          8.70800        5.18500        4.85900
C          9.58000        6.28800        4.95000
H         12.59900       12.31000        5.95800
H         11.74700       13.18000        4.67200
H         14.23900        9.35200        2.94800
H         13.01300        8.33700        3.67300
H         12.57300        9.41000        2.35000
H         12.99300        9.74000        6.20600
H         11.65600       10.78500        5.86600
H         11.64000        8.06300        4.53900
H          9.92600        9.19400        6.79500
H          8.01400        7.98600        7.46900
H          6.48700        6.04600        7.30300
H          6.92200        4.24900        5.63700
H          8.89800        4.40700        4.13400
H         10.42700        6.32600        4.28400
