81

N          2.96300        4.14900        1.73600
C          1.73700        3.80400        2.22500
O          1.05000        2.89500        1.76300
N          1.22700        4.49200        3.28200
C          1.80700        5.52700        3.94000
O          1.25000        6.08400        4.88800
C          3.11900        5.89600        3.41700
N          3.82100        6.95100        3.96100
C          5.03300        7.36500        3.40300
C          5.69100        8.49000        3.93400
C          6.90300        8.94000        3.37400
C          7.59100       10.15800        3.96200
C          7.45300        8.25200        2.26900
C          8.74900        8.71300        1.62500
C          6.79200        7.12100        1.74600
C          5.57400        6.64800        2.29900
N          4.86600        5.50900        1.80900
C          3.60900        5.16600        2.35100
C          5.56600        4.69500        0.79800
C          6.51300        3.65000        1.43600
O          7.54100        4.40200        2.05000
C          7.13000        2.65000        0.41500
O          6.89200        1.34800        0.91900
C          8.66500        2.80500        0.21200
O          8.94900        4.07900       -0.33100
C          9.29000        1.77000       -0.75700
O         10.70100        1.70500       -0.64400
P         11.72100        1.76300       -2.00200
O         13.11800        1.63800       -1.53500
O         11.19700        0.82600       -3.01700
O         11.51200        3.32200       -2.60200
H          0.31900        4.20100        3.60700
H          5.25700        9.01200        4.77400
H          8.59900        9.90500        4.29300
H          7.65900       10.95300        3.21800
H          7.04400       10.54800        4.82100
H          9.01300        8.09200        0.76800
H          8.65800        9.74100        1.27400
H          9.57000        8.66000        2.34000
H          7.24600        6.63600        0.89800
H          6.12000        5.32100        0.09800
H          4.82200        4.22400        0.15800
H          5.98400        3.08900        2.20900
H          8.06000        4.79200        1.35300
H          6.62000        2.73600       -0.54600
H          7.10000        1.32100        1.84400
H          9.16200        2.76200        1.18200
H          9.79500        4.34700        0.00500
H          9.06000        2.00600       -1.79700
H          8.87500        0.77400       -0.59500
H          3.41700        7.46700        4.72900
H         11.46100        3.23400       -3.54000
C          1.89500        6.53200        9.87900
O          1.12100        5.82300       10.52400
C          1.52200        6.94700        8.44700
C          3.57800        6.53600       11.69700
N          3.07300        6.96600       10.39000
C          3.93900        7.90200        9.65600
Cl        -0.23300        6.80800        8.14100
C          4.76100        7.26300        8.54400
C          6.06600        7.48000        8.28100
C          6.85800        6.86000        7.20300
C          8.19200        7.28700        7.01600
C          8.99100        6.72700        6.00100
C          8.46400        5.73100        5.15900
C          7.13700        5.29600        5.33500
C          6.33900        5.85700        6.35100
H          2.02900        6.31600        7.71800
H          1.80300        7.98500        8.26800
H          3.60200        5.44900       11.77300
H          4.59600        6.88400       11.87600
H          2.95100        6.92800       12.50000
H          3.35200        8.71300        9.22200
H          4.62500        8.39100       10.34800
H          4.20000        6.57500        7.93100
H          6.61100        8.17100        8.90700
H          8.61200        8.05000        7.65500
H         10.00900        7.06200        5.86900
H          9.07600        5.30000        4.38000
H          6.73100        4.53100        4.69100
H          5.32600        5.50100        6.45900
