81

N          3.79700        2.79100        3.02400
C          2.56500        2.53900        3.55400
O          2.09600        1.41000        3.68100
N          1.79600        3.58000        3.96900
C          2.10900        4.90000        3.91900
O          1.33000        5.76500        4.32200
C          3.42700        5.17000        3.35300
N          3.87600        6.46600        3.20600
C          5.09600        6.73100        2.57900
C          5.49500        8.06600        2.37900
C          6.71000        8.35800        1.72900
C          7.11700        9.80600        1.52000
C          7.52800        7.29700        1.27700
C          8.83800        7.56900        0.55900
C          7.12500        5.96200        1.48800
C          5.90800        5.64600        2.14600
N          5.45600        4.31300        2.38500
C          4.18400        4.08600        2.95400
C          6.42000        3.23700        2.09100
C          6.63400        3.03800        0.57100
O          5.50100        2.31800        0.12400
C          7.93100        2.25300        0.21300
O          7.83200        0.98800        0.83900
C          9.24500        2.92500        0.70800
O          9.55000        4.03800       -0.10800
C         10.48900        2.00200        0.66700
O         10.71100        1.45000       -0.61900
P         11.60300        2.26800       -1.81200
O         11.18900        1.75000       -3.13400
O         11.53300        3.71700       -1.53300
O         13.19100        1.77900       -1.53800
H          0.89400        3.34400        4.35300
H          4.85900        8.86800        2.72100
H          8.07900       10.00400        1.99200
H          7.19900       10.02800        0.45600
H          6.38500       10.49000        1.95100
H          9.32400        6.64200        0.25000
H          8.66700        8.16700       -0.33700
H          9.52700        8.10600        1.21000
H          7.77700        5.18900        1.11700
H          6.11700        2.29600        2.55000
H          7.35500        3.46100        2.60200
H          6.65200        4.00500        0.06600
H          5.58000        2.22600       -0.82100
H          7.98300        2.09100       -0.86500
H          7.78900        1.10000        1.78100
H          9.09300        3.31000        1.71600
H          9.69100        3.71200       -0.98800
H         10.39100        1.16800        1.36400
H         11.38600        2.53300        0.98500
H          3.28200        7.22800        3.49700
H         13.14900        0.85700       -1.34500
C          2.02600       14.46700        5.56900
O          1.29600       13.76700        4.86600
C          1.39600       15.50800        6.50800
C          4.26000       15.22700        6.32500
N          3.37600       14.35200        5.54800
C          4.05500       13.32500        4.74300
Cl        -0.30100       15.86600        6.07700
C          3.77600       11.89200        5.18100
C          4.69200       10.93500        5.43400
C          4.41900        9.54900        5.85600
C          5.51200        8.67900        6.06300
C          5.30500        7.34600        6.46700
C          3.99800        6.86700        6.67000
C          2.90000        7.72300        6.46800
C          3.10800        9.05700        6.06400
H          1.94600       16.44800        6.46700
H          1.40100       15.14500        7.53600
H          3.97700       15.23900        7.37800
H          5.29900       14.89800        6.28400
H          4.22400       16.24800        5.94200
H          3.78400       13.41700        3.69000
H          5.13300       13.48500        4.77100
H          2.72600       11.66800        5.28600
H          5.73800       11.17900        5.32400
H          6.52200        9.03200        5.91200
H          6.15000        6.69200        6.62200
H          3.83800        5.84500        6.98000
H          1.89600        7.35800        6.62400
H          2.24500        9.68700        5.91900
