81

N          3.54800        2.18600        1.98600
C          2.20000        2.04900        1.82600
O          1.63700        0.96600        1.67900
N          1.41700        3.16100        1.82300
C          1.82300        4.44800        1.96300
O          1.02300        5.38400        1.94100
C          3.26500        4.59400        2.13500
N          3.83400        5.84400        2.25900
C          5.22200        5.99200        2.32900
C          5.77900        7.28300        2.38200
C          7.17600        7.45800        2.43100
C          7.75200        8.86200        2.48200
C          8.01700        6.32200        2.42500
C          9.52900        6.46700        2.46200
C          7.45200        5.03100        2.38000
C          6.04800        4.83300        2.33600
N          5.42600        3.54800        2.29100
C          4.02600        3.44100        2.14600
C          6.31400        2.38900        2.49500
C          6.99300        1.93000        1.18200
O          7.72600        0.77000        1.52600
C          7.94800        2.99100        0.56000
O          7.35000        3.42500       -0.64800
C          9.36900        2.45400        0.21700
O          9.79000        1.54700        1.21700
C         10.46300        3.54800        0.13400
O         11.09800        3.58300       -1.13300
P         11.85400        2.21700       -1.80300
O         12.93200        1.79000       -0.88600
O         10.80500        1.25700       -2.20600
O         12.57100        2.79800       -3.21100
H          0.42800        3.01000        1.70100
H          5.12600        8.14400        2.37800
H          8.36400        8.99000        3.37500
H          8.37200        9.05000        1.60600
H          6.96400        9.61500        2.50500
H         10.02400        5.49600        2.41800
H          9.87800        7.05500        1.61300
H          9.84300        6.96100        3.38100
H          8.13500        4.19700        2.36800
H          5.78000        1.55400        2.95000
H          7.04800        2.64500        3.25800
H          6.23700        1.65600        0.44500
H          8.11600        0.43400        0.72400
H          8.03000        3.85300        1.22300
H          7.24100        2.68600       -1.23300
H          9.32500        1.89200       -0.71500
H         10.28700        0.86300        0.78600
H         11.24200        3.39200        0.88200
H         10.05300        4.53500        0.35300
H          3.24100        6.66000        2.23000
H         11.86000        3.05200       -3.77800
C          7.11400        3.44000        8.96300
O          6.11700        4.14600        9.11800
C          8.29700        3.58100        9.93400
C          8.43700        1.78600        7.67800
N          7.20700        2.53100        7.96200
C          6.06500        2.22000        7.08700
Cl         8.00700        2.73300       11.47900
C          5.01700        3.32300        6.99900
C          4.19600        3.57200        5.95900
C          3.18500        4.64100        5.87700
C          1.92300        4.33400        5.32000
C          0.92200        5.31900        5.21900
C          1.17100        6.62600        5.67500
C          2.42300        6.94500        6.23300
C          3.42400        5.95800        6.33400
H          8.47900        4.63000       10.16900
H          9.20100        3.15900        9.49500
H          8.81100        1.28600        8.57100
H          8.28100        1.01000        6.92800
H          9.21400        2.45400        7.30200
H          6.40400        1.99100        6.07500
H          5.57300        1.31000        7.43100
H          4.96400        3.94100        7.88200
H          4.26400        2.94100        5.08500
H          1.71600        3.33500        4.96500
H         -0.03800        5.07100        4.79100
H          0.40400        7.38300        5.59900
H          2.61700        7.94700        6.58500
H          4.37300        6.23600        6.76700
