81

N          3.33700        3.25000        3.12400
C          2.09300        3.07200        3.65500
O          1.51800        1.98700        3.69400
N          1.43500        4.14300        4.17500
C          1.87500        5.42500        4.23200
O          1.19000        6.32300        4.72400
C          3.20600        5.61500        3.66400
N          3.77800        6.86900        3.62000
C          5.01100        7.07000        2.99300
C          5.53700        8.37200        2.90000
C          6.76700        8.60200        2.25400
C          7.31000       10.01600        2.16200
C          7.47000        7.51100        1.69500
C          8.79200        7.71600        0.97500
C          6.94200        6.20700        1.79800
C          5.70700        5.95300        2.45100
N          5.13000        4.65500        2.58400
C          3.84900        4.50200        3.15800
C          5.98000        3.52100        2.17800
C          6.07000        3.37300        0.64000
O          4.83900        2.79900        0.24600
C          7.24700        2.47400        0.15900
O          7.00900        1.17600        0.67100
C          8.64900        2.93000        0.66000
O          8.99900        4.15600        0.04800
C          9.79600        1.94000        0.33700
O         10.11600        1.91400       -1.04400
P         11.35600        2.87100       -1.70300
O         11.49400        2.52400       -3.13400
O         11.12200        4.27400       -1.30300
O         12.74300        2.34500       -0.90600
H          0.51900        3.96200        4.55500
H          4.98600        9.19900        3.32400
H          8.29400       10.07800        2.62900
H          7.40100       10.32200        1.11900
H          6.65500       10.72700        2.66500
H          9.18100        6.77800        0.57800
H          8.67000        8.40400        0.13900
H          9.53800        8.12600        1.65600
H          7.51000        5.41000        1.34900
H          5.63500        2.58600        2.62200
H          6.96400        3.64800        2.62800
H          6.16000        4.35600        0.17500
H          4.24200        3.51600        0.05500
H          7.24700        2.41000       -0.93000
H          7.10300        0.53600       -0.02300
H          8.60300        3.11900        1.73200
H          8.35600        4.79900        0.31500
H          9.53800        0.92000        0.62700
H         10.69600        2.17700        0.90500
H          3.26600        7.65700        3.98700
H         13.17900        1.76000       -1.50400
C          3.12400        9.37400        6.12900
O          1.99500        9.33200        5.63900
C          4.09000       10.49200        5.70400
C          4.79200        8.62700        7.80100
N          3.55100        8.46500        7.03900
C          2.78500        7.24400        7.33400
Cl         5.79400        9.95800        5.73400
C          3.53300        5.94600        7.05600
C          3.72800        4.92900        7.92000
C          4.45400        3.67500        7.64800
C          4.80500        3.37500        6.31300
C          5.49900        2.19000        5.99900
C          5.85000        1.28900        7.02100
C          5.50600        1.57500        8.35500
C          4.81200        2.76100        8.66700
H          4.00700       11.34800        6.37400
H          3.86900       10.81900        4.68900
H          4.82200        9.59300        8.30700
H          4.89900        7.86600        8.57500
H          5.66000        8.55100        7.14500
H          2.46000        7.23300        8.37600
H          1.86200        7.23600        6.75300
H          3.92700        5.87900        6.05500
H          3.32400        5.01300        8.91800
H          4.54400        4.05700        5.51700
H          5.76200        1.97400        4.97400
H          6.38300        0.38000        6.78200
H          5.77500        0.88500        9.14100
H          4.56500        2.95000        9.70000
