81

N          3.83200        3.15900        3.94800
C          2.59400        2.97200        4.49000
O          2.12700        1.86700        4.75800
N          1.81600        4.05600        4.75500
C          2.12700        5.35900        4.53600
O          1.34000        6.26500        4.81200
C          3.45100        5.55800        3.95700
N          3.89900        6.82500        3.64800
C          5.12700        7.01200        3.00800
C          5.52500        8.31100        2.63900
C          6.74900        8.52100        1.97300
C          7.15400        9.93000        1.58200
C          7.57500        7.41400        1.67500
C          8.89400        7.59400        0.94500
C          7.17300        6.11500        2.05400
C          5.94800        5.88300        2.73100
N          5.49600        4.59000        3.13700
C          4.21700        4.43400        3.71400
C          6.46700        3.49000        2.99900
C          7.00100        3.35300        1.55200
O          5.85000        3.30100        0.73200
C          7.87300        2.08500        1.31800
O          8.22000        1.58200        2.59500
C          9.19400        2.34900        0.53900
O          8.89700        2.74400       -0.78600
C         10.12600        1.11600        0.42500
O         11.45000        1.47000        0.06200
P         11.82300        2.14000       -1.45400
O         11.09400        3.42000       -1.58500
O         13.29000        2.10500       -1.63000
O         11.15900        1.05100       -2.55400
H          0.91000        3.86800        5.15400
H          4.88200        9.14800        2.86500
H          8.10900       10.19300        2.03600
H          7.25000       10.01200        0.49900
H          6.41500       10.66200        1.90900
H          9.38700        6.63800        0.76700
H          8.73400        8.06900       -0.02400
H          9.57300        8.21600        1.52900
H          7.83200        5.30400        1.79600
H          6.04300        2.54200        3.33000
H          7.27500        3.65000        3.71200
H          7.57900        4.23800        1.28200
H          5.35900        2.52400        0.98400
H          7.28800        1.32000        0.80400
H          7.51600        1.75500        3.20800
H          9.72300        3.18100        1.00100
H          8.43600        2.02500       -1.19900
H          9.76500        0.40900       -0.32200
H         10.15400        0.55300        1.35800
H          3.29900        7.61600        3.82800
H         10.65100        0.44400       -2.04200
C          4.86300        5.02300        7.18900
O          3.76300        4.62800        7.57800
C          5.98900        4.00400        6.94900
C          4.14500        7.39300        7.23000
N          5.12100        6.33300        6.95900
C          6.41400        6.78800        6.42600
Cl         5.36300        2.34100        6.75800
C          7.62400        6.04300        6.97800
C          8.79000        6.58800        7.38000
C          9.95800        5.86400        7.91300
C          9.77800        4.54200        8.37700
C         10.86200        3.80600        8.89500
C         12.14200        4.38700        8.95400
C         12.33500        5.70200        8.49400
C         11.25000        6.43700        7.97600
H          6.68500        3.99300        7.78700
H          6.53800        4.25100        6.04100
H          3.77400        7.33600        8.25400
H          4.57800        8.38700        7.11000
H          3.29800        7.32000        6.54700
H          6.43400        6.70900        5.33700
H          6.54600        7.85100        6.63200
H          7.48500        4.97500        7.03400
H          8.90800        7.65900        7.31800
H          8.80200        4.08100        8.33800
H         10.71000        2.79600        9.24600
H         12.97400        3.82400        9.35000
H         13.31700        6.15000        8.53800
H         11.43300        7.44300        7.63200
