81

N          3.70800        2.38100        2.02900
C          2.37300        2.14200        1.87400
O          1.89000        1.01800        1.75900
N          1.51100        3.19400        1.84200
C          1.82300        4.51100        1.94600
O          0.95700        5.38600        1.89900
C          3.25100        4.76600        2.11100
N          3.72800        6.05600        2.19900
C          5.10100        6.30600        2.26400
C          5.56300        7.63600        2.27900
C          6.94300        7.91300        2.32200
C          7.41700        9.35500        2.33300
C          7.86500        6.84100        2.34600
C          9.36200        7.09500        2.37600
C          7.39500        5.51100        2.33800
C          6.00800        5.21100        2.30200
N          5.48200        3.88400        2.29300
C          4.09300        3.67100        2.15300
C          6.45100        2.79800        2.52800
C          7.18200        2.37000        1.23200
O          7.33400        0.96800        1.33300
C          8.57500        3.03900        1.04200
O          8.37100        4.20100        0.26100
C          9.61800        2.15000        0.30300
O          9.86600        0.97900        1.05600
C         10.99500        2.82700        0.08700
O         11.24800        3.11600       -1.27800
P         12.17000        2.08500       -2.26500
O         13.43200        1.77800       -1.55800
O         11.29900        0.98600       -2.73100
O         12.54400        3.03300       -3.60500
H          0.53600        2.96900        1.72600
H          4.85000        8.44600        2.25200
H          8.01700        9.55300        3.22100
H          8.02200        9.56300        1.45100
H          6.57600       10.04900        2.33500
H          9.92600        6.16200        2.35900
H          9.66800        7.68300        1.51100
H          9.63900        7.63700        3.28100
H          8.13600        4.72900        2.34800
H          5.97500        1.93300        2.99000
H          7.15200        3.12100        3.29600
H          6.56000        2.59000        0.36300
H          7.78100        0.67500        0.54500
H          8.97400        3.35000        2.00900
H          8.00300        3.96100       -0.58000
H          9.20300        1.82600       -0.65000
H         10.06200        0.28400        0.44000
H         11.81200        2.19500        0.43900
H         11.08000        3.74700        0.66600
H          3.07700        6.82600        2.14800
H         12.73700        2.42900       -4.30300
C          2.80300        5.21100        5.75700
O          1.59100        5.02100        5.65000
C          3.32000        6.62300        6.07700
C          3.32200        2.83700        5.27800
N          3.70700        4.21300        5.60600
C          5.15200        4.44600        5.75300
Cl         2.01000        7.83900        6.06600
C          5.54100        5.24600        6.99000
C          6.37000        6.30900        7.03300
C          6.74500        7.08100        8.23200
C          7.89900        7.89300        8.17700
C          8.30100        8.65000        9.29500
C          7.54900        8.60300       10.48400
C          6.39700        7.79800       10.55100
C          5.99600        7.04200        9.43200
H          4.06000        6.93800        5.34100
H          3.77700        6.64500        7.06600
H          2.69000        2.80500        4.39000
H          4.18900        2.21000        5.06600
H          2.78200        2.38000        6.10700
H          5.69600        3.50000        5.77500
H          5.53400        4.96900        4.87500
H          5.08300        4.88900        7.89800
H          6.81800        6.65300        6.11200
H          8.48600        7.94100        7.27200
H          9.18500        9.26700        9.23900
H          7.85600        9.18300       11.34200
H          5.81800        7.76100       11.46200
H          5.10800        6.43600        9.51700
