81

N          4.03800        3.07200        2.94200
C          2.80900        2.73800        3.43100
O          2.36900        1.59100        3.44400
N          2.00900        3.71500        3.93600
C          2.28700        5.04100        4.01700
O          1.48200        5.84300        4.49300
C          3.60200        5.39800        3.49500
N          4.01900        6.71300        3.47900
C          5.23700        7.06800        2.89500
C          5.60300        8.42600        2.82900
C          6.81500        8.81100        2.22400
C          7.18500       10.28200        2.16100
C          7.66400        7.82000        1.68100
C          8.97400        8.19300        1.00700
C          7.29600        6.46000        1.75800
C          6.08100        6.05100        2.36800
N          5.66200        4.69000        2.47200
C          4.39200        4.37700        3.00200
C          6.65700        3.67300        2.08700
C          6.83200        3.57200        0.55200
O          5.56200        3.19500        0.05400
C          7.90200        2.53300        0.10500
O          7.42800        1.25900        0.50000
C          9.30400        2.73700        0.74900
O          9.84000        3.98000        0.34200
C         10.35000        1.66300        0.35800
O         10.53400        1.57300       -1.04500
P         11.66800        2.53100       -1.87100
O         11.55900        2.23100       -3.31500
O         11.53400        3.92400       -1.39500
O         13.15600        1.95600       -1.33200
H          1.11000        3.42000        4.28500
H          4.94200        9.17500        3.24000
H          8.13800       10.45700        2.66000
H          7.27100       10.60800        1.12400
H          6.43200       10.90200        2.64700
H          9.48700        7.31300        0.61600
H          8.79500        8.87000        0.17200
H          9.64200        8.68200        1.71600
H          7.97100        5.74400        1.32200
H          6.40500        2.69500        2.49700
H          7.59800        3.90400        2.58300
H          7.09000        4.54900        0.14000
H          4.97200        3.92800        0.20300
H          7.99200        2.53500       -0.98300
H          7.89900        0.58300        0.02900
H          9.19700        2.78400        1.83300
H          9.87600        4.53700        1.10900
H         10.05700        0.67300        0.70900
H         11.31300        1.85700        0.83000
H          3.40200        7.42800        3.83500
H         13.24500        2.26200       -0.44400
C          4.42600        2.69600        8.08100
O          3.55800        2.44100        7.24500
C          4.34500        2.05000        9.47300
C          6.51500        3.82100        8.79300
N          5.46200        3.52800        7.81600
C          5.60800        4.19600        6.51300
Cl         4.55400        3.24600       10.78400
C          5.39500        5.70400        6.54800
C          6.24900        6.62600        7.03700
C          6.04000        8.08500        7.07100
C          5.03300        8.64100        6.25100
C          4.79300       10.02800        6.24600
C          5.55900       10.87800        7.06500
C          6.56400       10.33700        7.88700
C          6.80400        8.94900        7.89100
H          5.12300        1.29700        9.59500
H          3.37400        1.57700        9.61600
H          6.96000        2.90400        9.18000
H          7.32800        4.40200        8.35500
H          6.11500        4.39500        9.62900
H          6.59300        4.00100        6.08600
H          4.90300        3.77000        5.79800
H          4.45300        6.01900        6.12800
H          7.18800        6.29200        7.45300
H          4.43600        8.00200        5.61700
H          4.01900       10.44000        5.61400
H          5.37500       11.94300        7.06300
H          7.15300       10.98700        8.51700
H          7.58100        8.56700        8.53400
