81

N          3.39200        3.64100        3.13700
C          2.10100        3.48500        3.55000
O          1.48200        2.42700        3.46700
N          1.44400        4.54800        4.08600
C          1.92900        5.80300        4.26800
O          1.24000        6.69700        4.76200
C          3.31000        5.96900        3.82700
N          3.93300        7.19600        3.91800
C          5.22200        7.38000        3.41100
C          5.80600        8.66100        3.45200
C          7.09500        8.87600        2.92700
C          7.70000       10.26700        2.97800
C          7.80000        7.79300        2.35400
C          9.18600        7.98500        1.76300
C          7.21300        6.51000        2.32300
C          5.91700        6.27100        2.85200
N          5.27900        4.99400        2.84600
C          3.94900        4.86300        3.30000
C          6.11500        3.85200        2.43600
C          6.33400        3.80300        0.90400
O          5.07300        3.47200        0.35600
C          7.39600        2.75800        0.45000
O          6.93400        1.49000        0.87800
C          8.81200        2.97600        1.05900
O          9.29100        4.25900        0.70600
C          9.87900        1.96400        0.57200
O         10.11300        2.05400       -0.82300
P         11.56200        2.67500       -1.45900
O         12.68900        1.96800       -0.81400
O         11.45100        2.69600       -2.93200
O         11.58400        4.27500       -0.93300
H          0.49300        4.38500        4.37600
H          5.25400        9.48200        3.88400
H          8.64100       10.25300        3.52800
H          7.89200       10.63600        1.97000
H          7.03300       10.97300        3.47300
H          9.57000        7.05700        1.33600
H          9.16300        8.73000        0.96800
H          9.88600        8.31400        2.53000
H          7.78500        5.72000        1.86800
H          5.69500        2.90700        2.78200
H          7.06000        3.90300        2.97500
H          6.62400        4.78800        0.53600
H          4.49000        4.20600        0.52500
H          7.46000        2.74200       -0.63900
H          7.23500        0.82100        0.27600
H          8.74200        2.95800        2.14600
H          9.90500        4.52500        1.37800
H          9.58200        0.93600        0.78300
H         10.82400        2.10000        1.09900
H          3.42300        7.98000        4.29400
H         11.26500        4.78900       -1.65700
C          4.49100        3.18600        6.88100
O          3.40400        3.21800        6.30300
C          5.43100        1.99200        6.65300
C          6.13500        4.09800        8.49300
N          4.89500        4.17400        7.71500
C          4.11300        5.40700        7.89300
Cl         5.59000        1.57900        4.92200
C          4.89700        6.69300        7.65800
C          4.50100        7.75500        6.92800
C          5.26300        8.99600        6.70100
C          4.56600       10.14600        6.26900
C          5.24700       11.35700        6.03700
C          6.63700       11.43200        6.23700
C          7.34400       10.29300        6.66800
C          6.66100        9.08300        6.89900
H          5.05900        1.10400        7.16400
H          6.43000        2.21800        7.02600
H          6.99000        3.88000        7.85300
H          6.35700        5.03800        9.00000
H          6.06400        3.32300        9.25700
H          3.24400        5.41300        7.23400
H          3.70000        5.44100        8.90200
H          5.86000        6.70700        8.14300
H          3.53300        7.72200        6.45100
H          3.49700       10.10600        6.11200
H          4.70100       12.22900        5.70700
H          7.16100       12.36000        6.06000
H          8.41100       10.34800        6.82200
H          7.23300        8.23000        7.22900
