81

N          3.42800        3.31100        3.38200
C          2.12200        3.11100        3.72200
O          1.58400        2.00600        3.73800
N          1.35500        4.18000        4.06500
C          1.73800        5.48100        4.11100
O          0.95400        6.37500        4.43200
C          3.13500        5.69500        3.74700
N          3.66500        6.96800        3.71600
C          4.97500        7.18500        3.27800
C          5.46500        8.50100        3.18800
C          6.77400        8.74600        2.72800
C          7.27900       10.17400        2.63500
C          7.59300        7.65600        2.35500
C          9.00500        7.87700        1.84000
C          7.09800        6.33900        2.45500
C          5.78500        6.07000        2.92200
N          5.23700        4.75700        3.04300
C          3.88700        4.58300        3.41800
C          6.17700        3.64000        2.84700
C          6.33300        3.25700        1.35500
O          5.05300        2.81700        0.94600
C          7.38200        2.13600        1.09700
O          7.98300        1.83900        2.34400
C          8.51800        2.53300        0.10900
O          7.98300        2.70700       -1.18900
C          9.64700        1.48100       -0.02400
O         10.31200        1.55600       -1.27400
P         11.64800        2.57600       -1.52700
O         12.85400        1.89000       -1.01700
O         11.60800        3.05500       -2.92400
O         11.34400        3.90000       -0.53300
H          0.39700        3.98200        4.30800
H          4.82700        9.32600        3.46700
H          8.17200       10.30400        3.24500
H          7.52300       10.42500        1.60200
H          6.52800       10.88500        2.98300
H          9.48300        6.93500        1.56700
H          8.99400        8.51100        0.95300
H          9.61900        8.35500        2.60300
H          7.75700        5.54300        2.15100
H          5.88200        2.76500        3.42600
H          7.13300        3.90900        3.29400
H          6.60100        4.13700        0.76900
H          4.43000        3.49400        1.19000
H          6.88300        1.23300        0.74200
H          8.90200        1.64100        2.21700
H          8.93100        3.49600        0.40600
H          7.16500        3.17900       -1.09600
H          9.26200        0.46600        0.07600
H         10.38200        1.58500        0.77500
H          3.07500        7.75300        3.94800
H         12.18500        4.28700       -0.35300
C          4.39800        3.20700        7.31200
O          3.35200        3.28900        6.66800
C          5.27200        1.95000        7.17500
C          6.04700        4.09900        8.93200
N          4.81400        4.19300        8.14300
C          4.05500        5.44300        8.30600
Cl         5.58700        1.53000        5.46700
C          4.80100        6.69800        7.86900
C          4.33100        7.67500        7.06900
C          5.05600        8.88700        6.64600
C          6.45100        8.94800        6.86000
C          7.19000       10.08300        6.47500
C          6.54100       11.17400        5.86900
C          5.15200       11.12600        5.64900
C          4.41300        9.99000        6.03500
H          4.78500        1.09000        7.63500
H          6.23700        2.10400        7.65600
H          6.90300        3.86000        8.30000
H          6.28200        5.03800        9.43400
H          5.95500        3.33100        9.70000
H          3.11300        5.39800        7.75700
H          3.76500        5.56600        9.35100
H          5.80200        6.76600        8.26400
H          3.32600        7.59000        6.68400
H          6.96500        8.11800        7.32400
H          8.25700       10.11500        6.64400
H          7.10700       12.04500        5.57200
H          4.65100       11.96200        5.18300
H          3.35000        9.98600        5.85200
