81

N          3.58900        3.27500        3.33900
C          2.27600        3.07600        3.65200
O          1.73100        1.97500        3.63900
N          1.50900        4.14400        3.99900
C          1.89900        5.44200        4.07500
O          1.11400        6.33500        4.39800
C          3.30300        5.65400        3.74000
N          3.84100        6.92400        3.74100
C          5.15900        7.14000        3.33100
C          5.65900        8.45500        3.27200
C          6.97700        8.70000        2.84100
C          7.49200       10.12700        2.78100
C          7.79700        7.61100        2.46300
C          9.21900        7.83200        1.97800
C          7.29200        6.29600        2.53200
C          5.96900        6.02700        2.96900
N          5.41100        4.71600        3.05800
C          4.05400        4.54400        3.40500
C          6.34900        3.59600        2.85900
C          6.70300        3.38300        1.36700
O          5.62000        2.65200        0.82600
C          8.03100        2.60200        1.13800
O          9.07200        3.39200        1.68300
C          8.37100        2.33800       -0.35700
O          7.33400        1.58600       -0.95700
C          9.67700        1.53500       -0.58400
O         10.26100        1.79800       -1.84800
P         11.85200        2.37400       -2.00700
O         12.72100        1.58300       -1.11000
O         12.17000        2.47000       -3.44700
O         11.77700        3.94500       -1.40400
H          0.54500        3.94800        4.22100
H          5.02100        9.27900        3.55500
H          8.37500       10.24000        3.41000
H          7.75700       10.39300        1.75800
H          6.74000       10.83500        3.12900
H          9.69600        6.89200        1.69800
H          9.22800        8.48200        1.10200
H          9.82200        8.29300        2.76000
H          7.95200        5.50100        2.22500
H          5.95900        2.67100        3.28500
H          7.23800        3.77900        3.46000
H          6.76300        4.34400        0.85600
H          5.62300        2.79800       -0.11500
H          8.00600        1.65700        1.68400
H          8.90000        3.55700        2.60200
H          8.41500        3.28800       -0.88900
H          7.41800        0.69300       -0.64800
H          9.50000        0.46000       -0.52700
H         10.41000        1.74300        0.19600
H          3.25200        7.70800        3.97600
H         12.42100        3.98900       -0.71600
C          4.54800        3.91900        7.15900
O          3.51700        3.56900        6.58500
C          5.67800        2.89800        7.36900
C          5.92600        5.59700        8.35100
N          4.72900        5.18300        7.61400
C          3.73000        6.23900        7.39000
Cl         5.73600        1.68000        6.06300
C          4.31500        7.58900        6.99100
C          5.61000        7.95600        7.06100
C          6.17200        9.26300        6.67600
C          7.56300        9.46700        6.81400
C          8.15100       10.69700        6.46100
C          7.35000       11.74100        5.96300
C          5.96300       11.55200        5.81900
C          5.37700       10.32100        6.17300
H          5.54300        2.36100        8.30700
H          6.64500        3.40000        7.38900
H          6.83500        5.34400        7.80400
H          5.95200        6.67500        8.51600
H          5.96300        5.11500        9.32900
H          3.01500        5.93800        6.62200
H          3.13200        6.38000        8.29100
H          3.58000        8.28700        6.62300
H          6.33100        7.24200        7.43100
H          8.19200        8.67400        7.19400
H          9.21600       10.83800        6.57100
H          7.79900       12.68500        5.69000
H          5.34700       12.35200        5.43600
H          4.31100       10.20900        6.05000
