81

N          3.53900        3.89300        3.54100
C          2.26200        3.66900        3.96600
O          1.74400        2.55500        4.01100
N          1.50200        4.72300        4.36600
C          1.86600        6.03000        4.39500
O          1.09000        6.90900        4.77300
C          3.23200        6.27000        3.94000
N          3.73700        7.55200        3.88200
C          5.01100        7.79300        3.36000
C          5.47300        9.11800        3.24600
C          6.74400        9.38700        2.70200
C          7.21700       10.82500        2.58400
C          7.55400        8.31300        2.26800
C          8.92500        8.56100        1.66200
C          7.08900        6.98800        2.39300
C          5.81400        6.69400        2.94300
N          5.29700        5.37200        3.09200
C          3.97800        5.17300        3.55500
C          6.24100        4.27100        2.82700
C          6.48100        4.05400        1.31300
O          5.50600        3.11100        0.91100
C          7.90300        3.52100        0.96900
O          8.80000        4.60200        1.14200
C          8.05900        3.00600       -0.49200
O          6.96800        2.16900       -0.82300
C          9.34000        2.16900       -0.74000
O          9.96700        2.49300       -1.96900
P         11.54800        3.11200       -2.04200
O         12.42300        2.23800       -1.23200
O         11.87700        3.37800       -3.45800
O         11.43800        4.60100       -1.26400
H          0.56500        4.50800        4.67000
H          4.84100        9.93100        3.57300
H          8.14800       10.96600        3.13500
H          7.38900       11.08500        1.54000
H          6.48000       11.52000        2.98700
H          9.39900        7.62800        1.35200
H          8.84400        9.19900        0.78200
H          9.58100        9.04500        2.38500
H          7.73800        6.20500        2.04000
H          5.90700        3.34100        3.28800
H          7.17000        4.47800        3.35500
H          6.30800        4.98400        0.77000
H          4.65400        3.52000        1.02500
H          8.18500        2.73500        1.67000
H          8.49200        5.35500        0.65300
H          8.02200        3.85200       -1.17700
H          7.18600        1.29300       -0.53000
H          9.12200        1.10000       -0.76100
H         10.05900        2.29600        0.06900
H          3.15100        8.32500        4.15800
H         12.32600        4.88500       -1.12200
C          5.96600        5.32700        7.03200
O          6.61500        4.51200        6.37600
C          6.57400        6.70600        7.33700
C          4.11800        3.72200        7.41300
N          4.72200        5.05500        7.49600
C          3.88700        6.08700        8.13100
Cl         6.37800        7.84600        5.97500
C          3.93200        7.44700        7.44400
C          4.32400        8.61400        7.99400
C          4.36500        9.92800        7.32800
C          3.57400       10.12300        6.17400
C          3.57700       11.36000        5.50000
C          4.37300       12.41800        5.97400
C          5.16500       12.23700        7.12200
C          5.16200       10.99900        7.79600
H          7.64200        6.62000        7.53600
H          6.09100        7.15000        8.20600
H          4.77200        2.96400        7.84700
H          3.17400        3.66700        7.95600
H          3.91600        3.45500        6.37500
H          2.84500        5.76500        8.18000
H          4.18900        6.22100        9.17000
H          3.60800        7.42300        6.41500
H          4.64600        8.61600        9.02500
H          2.95600        9.32100        5.79800
H          2.96700       11.49600        4.61900
H          4.37600       13.36700        5.45800
H          5.77700       13.04800        7.48900
H          5.78000       10.89400        8.67400
