81

N          3.47200        3.85000        3.36300
C          2.20100        3.65900        3.82200
O          1.63800        2.56700        3.83500
N          1.50000        4.72400        4.29400
C          1.92000        6.01200        4.36900
O          1.19500        6.90400        4.81300
C          3.27900        6.21700        3.87900
N          3.83700        7.47800        3.86000
C          5.10100        7.69100        3.30500
C          5.61500        8.99900        3.23400
C          6.87800        9.24100        2.65900
C          7.40800       10.66200        2.58900
C          7.62700        8.15600        2.15000
C          8.98600        8.37500        1.50800
C          7.11000        6.84600        2.23100
C          5.84300        6.58000        2.81200
N          5.27500        5.27500        2.92000
C          3.96500        5.10900        3.41900
C          6.16200        4.15000        2.57300
C          6.16200        3.84700        1.05500
O          5.58100        2.56400        0.92900
C          7.58000        3.84700        0.41100
O          7.47100        4.53000       -0.82500
C          8.15300        2.43000        0.11800
O          7.82100        1.55300        1.17600
C          9.69600        2.38000       -0.01900
O         10.11800        2.37500       -1.37300
P         11.49100        3.22900       -1.89500
O         11.57800        3.10700       -3.36600
O         11.47400        4.56500       -1.26500
O         12.78000        2.37500       -1.22700
H          0.56600        4.53400        4.62200
H          5.03000        9.82100        3.61900
H          8.36100       10.74000        3.11300
H          7.55600       10.96200        1.55200
H          6.71500       11.36800        3.04800
H          9.41000        7.43900        1.14100
H          8.90400        9.05600        0.66100
H          9.68600        8.79800        2.22900
H          7.71400        6.05400        1.82100
H          5.90100        3.25000        3.13200
H          7.16300        4.37400        2.93800
H          5.53300        4.56600        0.53000
H          6.17200        1.94400        1.34500
H          8.27500        4.40400        1.04100
H          6.79800        4.12200       -1.35700
H          7.68000        2.03000       -0.77800
H          7.91000        0.66700        0.84800
H         10.11100        1.48800        0.45200
H         10.16600        3.21800        0.49500
H          3.29300        8.26100        4.19100
H         12.40800        1.58700       -0.86400
C          2.96700       14.62800        5.65000
O          1.85800       14.37400        5.17900
C          3.17600       15.94100        6.42200
C          5.34000       14.06600        6.08700
N          4.02000       13.78600        5.51400
C          3.90700       12.51500        4.78200
Cl         3.17500       17.36500        5.34400
C          3.92000       11.27300        5.66500
C          2.88800       10.43400        5.88800
C          2.90300        9.23400        6.74400
C          1.67000        8.69800        7.17700
C          1.63000        7.55400        7.99600
C          2.82600        6.92900        8.39300
C          4.06200        7.45200        7.96800
C          4.10100        8.59700        7.14900
H          4.13200       15.93200        6.94600
H          2.37900       16.08300        7.15100
H          5.26900       14.28600        7.15300
H          6.01600       13.21600        5.98800
H          5.80500       14.91500        5.58600
H          2.99800       12.49500        4.17900
H          4.72300       12.42900        4.06200
H          4.87100       11.08800        6.13900
H          1.94400       10.63500        5.40300
H          0.74200        9.16500        6.88000
H          0.67900        7.15500        8.31900
H          2.79700        6.05100        9.02100
H          4.98200        6.97400        8.27100
H          5.06500        8.97200        6.84100
