81

N          3.76200        2.73500        3.16100
C          2.52500        2.46600        3.67200
O          2.07300        1.33100        3.79900
N          1.73300        3.49800        4.06700
C          2.02600        4.82200        4.01300
O          1.22600        5.67700        4.39700
C          3.34800        5.11000        3.46700
N          3.77900        6.41100        3.31900
C          5.00500        6.69300        2.71100
C          5.38600        8.03200        2.50800
C          6.60700        8.34000        1.87700
C          6.99400        9.79200        1.66400
C          7.44900        7.28900        1.44500
C          8.76700        7.57700        0.74700
C          7.06500        5.94900        1.65900
C          5.84100        5.61700        2.29800
N          5.40700        4.27900        2.53900
C          4.13000        4.03500        3.08900
C          6.39300        3.21700        2.26800
C          6.69400        3.06400        0.75700
O          5.57500        2.38700        0.21900
C          7.99300        2.26200        0.45000
O          7.82700        0.97700        1.02000
C          9.28800        2.88300        1.05100
O          9.65800        4.02800        0.30900
C         10.51600        1.93800        1.03400
O         10.74300        1.36900       -0.24400
P         11.39000        2.26800       -1.53200
O         10.79500        1.76600       -2.78900
O         11.29400        3.70300       -1.19200
O         13.02400        1.86100       -1.53300
H          0.82900        3.25000        4.43700
H          4.73100        8.82600        2.83400
H          7.94500       10.00900        2.15100
H          7.09000       10.00900        0.60000
H          6.24400       10.46800        2.07800
H          9.27300        6.65600        0.45300
H          8.60100        8.16600       -0.15500
H          9.43600        8.13000        1.40600
H          7.73500        5.18400        1.30400
H          6.07100        2.26100        2.68200
H          7.29600        3.43000        2.83800
H          6.76300        4.04700        0.28900
H          4.80700        2.92000        0.40200
H          8.10800        2.13900       -0.62800
H          7.73000        1.05500        1.96100
H          9.08500        3.22200        2.06700
H          9.84300        3.74200       -0.57700
H         10.39600        1.11300        1.73800
H         11.41900        2.45700        1.35700
H          3.16800        7.16600        3.59400
H         13.34700        2.08400       -0.67500
C          4.50500       15.48800        5.79900
O          3.90900       15.22100        6.84400
C          5.56600       16.60000        5.79900
C          4.95100       15.14700        3.38600
N          4.26000       14.83000        4.64000
C          3.28100       13.73500        4.56100
Cl         6.94700       16.21500        6.86500
C          3.83300       12.36500        4.93700
C          3.14600       11.34500        5.48900
C          3.68300       10.02200        5.85300
C          2.77900        8.95100        6.02900
C          3.24100        7.66700        6.37700
C          4.61700        7.43800        6.55300
C          5.52900        8.49600        6.38000
C          5.06600        9.78000        6.03300
H          5.14000       17.54000        6.14800
H          5.96100       16.74700        4.79400
H          6.03300       15.13100        3.51700
H          4.72000       14.42800        2.60000
H          4.65800       16.13400        3.02400
H          2.41800       13.94100        5.19600
H          2.87600       13.67300        3.55000
H          4.88300       12.24700        4.72100
H          2.09500       11.48200        5.69700
H          1.71800        9.11000        5.89600
H          2.53800        6.85700        6.50700
H          4.97300        6.45400        6.81900
H          6.58700        8.32300        6.51400
H          5.79200       10.56800        5.90700
