81

N          5.80600        3.64800        1.65200
C          4.47600        3.40900        1.46500
O          4.01300        2.30300        1.19600
N          3.59500        4.44000        1.57600
C          3.88300        5.73500        1.85900
O          3.00100        6.59300        1.93200
C          5.30600        5.99100        2.06000
N          5.76000        7.26600        2.32400
C          7.12900        7.53000        2.42400
C          7.56600        8.85200        2.62200
C          8.94100        9.14600        2.70300
C          9.38900       10.58100        2.91300
C          9.88200        8.09800        2.58200
C         11.37500        8.37300        2.64800
C          9.43700        6.77300        2.39100
C          8.05600        6.45500        2.31200
N          7.55300        5.13300        2.12100
C          6.16800        4.91700        1.95200
C          8.54200        4.04300        2.20700
C          9.22200        3.75800        0.84500
O          8.44900        2.73500        0.24800
C         10.70500        3.29600        0.96400
O         11.45100        4.41600        1.40300
C         11.33300        2.80500       -0.37300
O         12.47200        2.01200       -0.10200
C         11.80900        3.94200       -1.31100
O         12.09600        3.47900       -2.62000
P         13.12400        2.15600       -2.90600
O         13.45200        2.13100       -4.34800
O         14.20800        2.18600       -1.90300
O         12.16400        0.81400       -2.56900
H          2.62400        4.21500        1.42900
H          6.83800        9.64600        2.70500
H          9.98600       10.66600        3.82000
H          9.98900       10.92000        2.06800
H          8.53500       11.25300        3.00900
H         11.95600        7.46100        2.50400
H         11.66900        9.07900        1.87200
H         11.64300        8.79000        3.61900
H         10.19200        6.01100        2.29500
H          8.09400        3.12900        2.59700
H          9.27200        4.29700        2.97400
H          9.17500        4.64400        0.21100
H          8.50400        1.97200        0.81500
H         10.79200        2.51600        1.72200
H         11.39600        5.11000        0.75700
H         10.62100        2.16100       -0.88900
H         13.10200        2.56500        0.34100
H         12.71300        4.42100       -0.93300
H         11.06900        4.74100       -1.37300
H          5.09600        8.02300        2.37800
H         12.57300        0.38000       -1.83900
C          1.26200        3.70800        4.36500
O          1.70500        2.60400        4.68400
C          0.35700        3.82900        3.12900
C          1.04000        6.15400        4.69000
N          1.54200        4.83000        5.07100
C          2.37000        4.79600        6.28700
Cl         1.04300        2.99300        1.70700
C          3.77300        5.36500        6.11200
C          4.93600        4.70700        6.29100
C          6.29200        5.26200        6.12200
C          7.38600        4.36900        6.08700
C          8.70100        4.84700        5.92700
C          8.93700        6.22800        5.80100
C          7.85600        7.12800        5.83500
C          6.54100        6.64900        5.99400
H          0.21700        4.87400        2.85400
H         -0.61900        3.38500        3.32800
H         -0.04300        6.14400        4.56100
H          1.25800        6.90700        5.44800
H          1.49900        6.48500        3.75700
H          1.88400        5.33500        7.10200
H          2.46200        3.77000        6.64400
H          3.78600        6.40200        5.81500
H          4.90300        3.67000        6.58700
H          7.22100        3.30600        6.18100
H          9.52800        4.15300        5.90100
H          9.94500        6.59700        5.67900
H          8.03500        8.18900        5.73800
H          5.73600        7.36600        6.01500
