81

N          3.25100        4.36300        2.13700
C          2.02500        3.95000        2.56900
O          1.46500        2.93400        2.16200
N          1.36600        4.69100        3.50000
C          1.79100        5.84200        4.07900
O          1.10700        6.43600        4.91400
C          3.10300        6.28300        3.61800
N          3.65700        7.45400        4.09100
C          4.87000        7.92700        3.58200
C          5.37500        9.16100        4.03100
C          6.58400        9.66800        3.51600
C          7.10600       11.00400        4.01300
C          7.28700        8.92600        2.53900
C          8.58600        9.44400        1.94700
C          6.77900        7.68600        2.09900
C          5.56600        7.15500        2.61000
N          5.01000        5.90600        2.19900
C          3.74700        5.49800        2.68100
C          5.86400        5.06500        1.34100
C          6.94100        4.30200        2.15000
O          7.86800        5.28900        2.56200
C          7.67700        3.19600        1.33800
O          6.82900        2.06200        1.32800
C          9.04400        2.75900        1.94000
O         10.02400        3.74000        1.66200
C          9.59300        1.42400        1.37600
O          9.42100        1.31800       -0.02700
P         10.35700        2.21700       -1.12400
O         10.02100        3.64700       -0.95300
O         11.76100        1.77100       -1.01000
O          9.79500        1.72800       -2.63400
H          0.46400        4.34700        3.78700
H          4.82500        9.72200        4.77100
H          8.10100       10.88900        4.44400
H          7.16500       11.71900        3.19200
H          6.45500       11.42500        4.77900
H          8.97700        8.76600        1.18700
H          8.43200       10.41500        1.47600
H          9.34500        9.54900        2.72200
H          7.34600        7.16300        1.34700
H          6.33700        5.65100        0.55300
H          5.22700        4.38300        0.78000
H          6.49400        3.85400        3.03900
H          7.39100        5.92100        3.09100
H          7.81500        3.52100        0.30600
H          6.68700        1.76100        2.21700
H          8.95800        2.70400        3.02500
H         10.83200        3.45500        2.07000
H          9.09700        0.56400        1.82800
H         10.65000        1.29900        1.61400
H          3.14400        8.00500        4.76300
H          9.29600        2.45400       -2.97100
C          7.39000        4.38600        6.53800
O          7.74900        3.52400        7.34100
C          8.45000        5.15400        5.73300
C          5.13100        3.72600        5.76500
N          6.08400        4.68400        6.33300
C          5.52500        6.00000        6.68000
Cl         7.95400        6.83700        5.39700
C          4.63100        6.00200        7.91400
C          3.34100        6.39000        7.97200
C          2.47900        6.39200        9.16900
C          1.08500        6.53000        8.99500
C          0.21800        6.53800       10.10500
C          0.73800        6.40700       11.40600
C          2.12600        6.26800       11.59200
C          2.99200        6.26000       10.48100
H          8.62800        4.67100        4.77200
H          9.39000        5.19500        6.28300
H          5.14000        2.78600        6.31600
H          4.10700        4.09900        5.80000
H          5.36900        3.52100        4.72000
H          6.32100        6.73000        6.83500
H          4.94700        6.38900        5.84000
H          5.12400        5.65000        8.80600
H          2.86400        6.73800        7.06800
H          0.66900        6.63100        8.00300
H         -0.84700        6.64400        9.95800
H          0.07500        6.41200       12.25800
H          2.52800        6.16600       12.59000
H          4.05000        6.15100       10.66000
