81

N          4.97400        1.73300        1.73100
C          4.54000        0.54900        2.25100
O          4.49600       -0.50100        1.61300
N          4.12600        0.50600        3.54600
C          4.08500        1.53800        4.42600
O          3.68500        1.38600        5.58200
C          4.54900        2.80400        3.87000
N          4.53800        3.95300        4.63300
C          4.89300        5.18400        4.07500
C          4.80300        6.35100        4.85700
C          5.13400        7.60500        4.31000
C          5.02400        8.85000        5.17200
C          5.55800        7.68400        2.96400
C          5.91100        9.01900        2.33000
C          5.65500        6.51000        2.18800
C          5.33100        5.23600        2.72200
N          5.41200        4.01900        1.98000
C          4.97400        2.80600        2.55500
C          6.05200        4.10700        0.65500
C          7.58200        3.88400        0.72400
O          8.12300        5.12400        1.13600
C          8.22000        3.45600       -0.63000
O          7.41800        2.41200       -1.15100
C          9.67700        2.91900       -0.51300
O          9.80800        2.14800        0.66600
C         10.76000        4.02300       -0.43200
O         11.27900        4.36600       -1.70600
P         12.02700        3.22200       -2.71600
O         12.54400        3.92800       -3.90800
O         12.93800        2.40100       -1.89200
O         10.76200        2.22700       -3.21000
H          3.81400       -0.39000        3.88500
H          4.46900        6.27900        5.88200
H          5.98600        9.35700        5.23500
H          4.29400        9.54100        4.75000
H          4.70700        8.60400        6.18600
H          6.18500        8.90300        1.28100
H          5.06200        9.70100        2.37700
H          6.75400        9.47700        2.84700
H          5.97400        6.62300        1.16500
H          5.83600        5.06000        0.17200
H          5.57200        3.39000       -0.00900
H          7.81700        3.13400        1.48100
H          7.90600        5.76400        0.46400
H          8.18900        4.28700       -1.33600
H          7.43100        1.67200       -0.55700
H          9.88100        2.24900       -1.34700
H          9.63700        2.72400        1.40000
H         11.60300        3.71300        0.18600
H         10.37400        4.92300        0.04700
H          4.20400        3.90900        5.58400
H         10.61700        2.42600       -4.12100
C          5.44000        4.72800       10.38000
O          6.63000        4.81000       10.68500
C          4.58500        3.59700       10.97500
C          5.58000        6.69500        8.88200
N          4.84800        5.60600        9.53400
C          3.41700        5.52000        9.20300
Cl         3.08700        4.21000       11.73100
C          3.12400        5.24600        7.73200
C          2.00800        5.58800        7.05700
C          1.72800        5.31900        5.63500
C          1.42400        3.99600        5.24500
C          1.14800        3.68700        3.89900
C          1.17300        4.70100        2.92500
C          1.47300        6.02400        3.30000
C          1.74900        6.33200        4.64600
H          5.13900        3.05900       11.74400
H          4.29300        2.89200       10.19700
H          6.46000        6.32100        8.35700
H          4.96900        7.21000        8.13900
H          5.90100        7.43700        9.61400
H          2.92800        4.74700        9.79700
H          2.91600        6.44800        9.48200
H          3.91900        4.72400        7.22300
H          1.22500        6.11100        7.58400
H          1.40000        3.20600        5.98100
H          0.91700        2.67100        3.61500
H          0.96100        4.46600        1.89200
H          1.49200        6.80400        2.55300
H          1.97500        7.35600        4.90000
