81

N          5.00700        1.68700        1.56100
C          4.54000        0.50000        2.04500
O          4.52500       -0.54300        1.39500
N          4.05900        0.44600        3.31600
C          3.97700        1.46900        4.20400
O          3.51600        1.30800        5.33500
C          4.47600        2.73900        3.68600
N          4.43100        3.88000        4.45900
C          4.82100        5.11400        3.93300
C          4.69600        6.27300        4.72200
C          5.06200        7.53200        4.20600
C          4.91200        8.76800        5.07400
C          5.55600        7.62200        2.88500
C          5.94800        8.96100        2.28400
C          5.68700        6.45500        2.10200
C          5.32900        5.17700        2.60500
N          5.44300        3.96700        1.85600
C          4.96900        2.75100        2.39500
C          6.15100        4.06500        0.56700
C          7.67400        3.82700        0.71300
O          8.20000        5.05000        1.19000
C          8.38200        3.43200       -0.61600
O          7.59800        2.41500       -1.21300
C          9.82300        2.87300       -0.43500
O          9.92400        2.20500        0.80700
C         10.93300        3.95400       -0.43800
O         11.38000        4.26600       -1.74700
P         11.99900        3.08300       -2.79700
O         12.54200        3.76500       -3.99200
O         12.85900        2.17100       -2.01400
O         10.64000        2.20800       -3.27100
H          3.72500       -0.45200        3.62900
H          4.30900        6.19300        5.72700
H          5.87300        9.26900        5.19300
H          4.20900        9.46800        4.62200
H          4.54200        8.51400        6.06700
H          6.27600        8.85400        1.24900
H          5.10100        9.64700        2.29400
H          6.76500        9.40900        2.84900
H          6.05900        6.57700        1.09900
H          5.97000        5.02700        0.08600
H          5.70000        3.36100       -0.13000
H          7.86100        3.05400        1.45900
H          8.02300        5.71100        0.52800
H          8.39900        4.28400       -1.29700
H          7.57000        1.65700       -0.64200
H         10.01900        2.12800       -1.20600
H          9.27900        1.50900        0.80700
H         11.80500        3.63400        0.13300
H         10.59500        4.87000        0.04800
H          4.04700        3.82700        5.39100
H         10.87900        1.77500       -4.07400
C          1.73700        4.80800        2.55100
O          1.89000        5.95200        2.11900
C          2.01500        3.61000        1.62900
C          0.94700        3.22900        4.28800
N          1.33200        4.56400        3.82100
C          1.25900        5.63200        4.83100
Cl         0.54100        3.05100        0.78800
C          2.08700        5.37400        6.08400
C          1.85000        5.86000        7.31900
C          2.65300        5.61000        8.52900
C          2.00300        5.61100        9.78300
C          2.72500        5.37700       10.96900
C          4.11100        5.13900       10.91400
C          4.77100        5.13500        9.67200
C          4.04700        5.36900        8.48600
H          2.40200        2.76600        2.20000
H          2.74400        3.88000        0.86500
H          1.72700        2.49700        4.07700
H          0.78100        3.20600        5.36600
H          0.02400        2.90400        3.80700
H          1.57100        6.58800        4.40700
H          0.22200        5.78400        5.13300
H          2.93700        4.73300        5.91700
H          0.99200        6.50000        7.46700
H          0.94000        5.79100        9.84200
H          2.21500        5.38000       11.92100
H          4.66600        4.95900       11.82300
H          5.83400        4.95100        9.62700
H          4.58400        5.35800        7.55000
